p ocr 351 327 677
1 379
1 655
2 379
3 379
4 379
5 379
6 379
7 379
8 379
9 379
10 379
11 379
12 379
13 379
14 379
15 379
16 379
17 379
18 379
19 379
20 379
21 379
22 379
23 379
24 379
25 379
26 379
27 379
28 379
29 379
30 379
31 379
32 379
33 379
34 379
35 379
36 379
37 379
38 379
39 379
40 379
41 379
42 379
43 379
44 379
45 379
46 379
47 379
48 379
49 379
50 379
51 379
52 379
53 379
54 379
55 379
56 379
57 379
58 379
59 379
60 379
61 379
62 379
63 379
64 379
65 379
66 379
67 379
68 379
69 379
70 379
71 379
72 379
73 379
74 379
75 379
76 379
77 379
78 379
79 379
80 379
81 379
82 379
83 379
84 379
85 379
86 379
87 379
88 379
89 379
90 379
91 379
92 379
93 379
94 379
95 379
96 379
97 379
98 379
99 379
100 379
101 379
102 379
103 379
104 379
105 379
106 379
107 379
108 379
109 379
110 379
111 379
112 379
113 379
114 379
115 379
116 379
117 379
118 379
119 379
120 379
121 379
122 379
123 379
124 379
125 379
126 379
127 379
128 379
129 379
130 379
131 379
132 379
133 379
134 379
135 379
136 379
137 379
138 379
139 379
140 379
141 379
142 379
143 379
144 379
145 379
146 379
147 379
148 379
149 379
150 379
151 379
152 379
153 379
154 379
155 379
156 379
157 379
158 379
159 379
160 379
161 379
162 379
163 379
164 379
165 379
166 379
167 379
168 379
169 379
170 379
171 379
172 379
173 379
174 379
175 379
176 379
177 379
178 379
179 379
180 379
181 379
182 379
183 379
184 379
185 379
186 379
187 379
188 379
189 379
190 379
191 379
192 379
193 379
194 379
195 379
196 379
197 379
198 379
199 379
200 379
201 379
202 379
203 379
204 379
205 379
206 379
207 379
208 379
209 379
210 379
211 379
212 379
213 379
214 379
215 379
216 379
217 379
218 379
219 379
220 379
221 379
222 379
223 379
224 379
225 379
226 379
227 379
228 379
229 379
230 379
231 379
232 379
233 379
234 379
235 379
236 379
237 379
238 379
239 379
240 379
241 379
242 379
243 379
244 379
245 379
246 379
247 379
248 379
249 379
250 379
251 379
252 379
253 379
254 379
255 379
256 379
257 379
258 379
259 379
260 379
261 379
262 379
263 379
264 379
265 379
266 379
267 379
268 379
269 379
270 379
271 379
272 379
273 379
274 379
275 379
276 379
277 379
278 379
279 379
280 379
281 379
282 379
283 379
284 379
285 379
286 379
287 379
288 379
289 379
290 379
291 379
292 379
293 379
294 379
295 379
296 379
297 379
298 379
299 379
300 379
301 379
302 379
303 379
304 379
305 379
306 379
307 379
308 379
309 379
310 379
311 379
312 379
313 379
314 379
315 379
316 379
317 379
318 379
319 379
320 379
321 379
322 379
323 379
324 379
325 379
326 352
326 353
326 354
326 355
326 356
326 357
326 358
326 359
326 360
326 361
326 362
326 363
326 364
326 365
326 366
326 367
326 368
326 369
326 370
326 371
326 372
326 373
326 374
326 375
326 376
326 377
326 378
326 379
326 380
326 381
326 382
326 383
326 384
326 385
326 386
326 387
326 388
326 389
326 390
326 391
326 392
326 393
326 394
326 395
326 396
326 397
326 398
326 399
326 400
326 401
326 402
326 403
326 404
326 405
326 406
326 407
326 408
326 409
326 410
326 411
326 412
326 413
326 414
326 415
326 416
326 417
326 418
326 419
326 420
326 421
326 422
326 423
326 424
326 425
326 426
326 427
326 428
326 429
326 430
326 431
326 432
326 433
326 434
326 435
326 436
326 437
326 438
326 439
326 440
326 441
326 442
326 443
326 444
326 445
326 446
326 447
326 448
326 449
326 450
326 451
326 452
326 453
326 454
326 455
326 456
326 457
326 458
326 459
326 460
326 461
326 462
326 463
326 464
326 465
326 466
326 467
326 468
326 469
326 470
326 471
326 472
326 473
326 474
326 475
326 476
326 477
326 478
326 479
326 480
326 481
326 482
326 483
326 484
326 485
326 486
326 487
326 488
326 489
326 490
326 491
326 492
326 493
326 494
326 495
326 496
326 497
326 498
326 499
326 500
326 501
326 502
326 503
326 504
326 505
326 506
326 507
326 508
326 509
326 510
326 511
326 512
326 513
326 514
326 515
326 516
326 517
326 518
326 519
326 520
326 521
326 522
326 523
326 524
326 525
326 526
326 527
326 528
326 529
326 530
326 531
326 532
326 533
326 534
326 535
326 536
326 537
326 538
326 539
326 540
326 541
326 542
326 543
326 544
326 545
326 546
326 547
326 548
326 549
326 550
326 551
326 552
326 553
326 554
326 555
326 556
326 557
326 558
326 559
326 560
326 561
326 562
326 563
326 564
326 565
326 566
326 567
326 568
326 569
326 570
326 571
326 572
326 573
326 574
326 575
326 576
326 577
326 578
326 579
326 580
326 581
326 582
326 583
326 584
326 585
326 586
326 587
326 588
326 589
326 590
326 591
326 592
326 593
326 594
326 595
326 596
326 597
326 598
326 599
326 600
326 601
326 602
326 603
326 604
326 605
326 606
326 607
326 608
326 609
326 610
326 611
326 612
326 613
326 614
326 615
326 616
326 617
326 618
326 619
326 620
326 621
326 622
326 623
326 624
326 625
326 626
326 627
326 628
326 629
326 630
326 631
326 632
326 633
326 634
326 635
326 636
326 637
326 638
326 639
326 640
326 641
326 642
326 643
326 644
326 645
326 646
326 647
326 648
326 649
326 650
326 651
326 652
326 653
326 654
326 656
326 657
326 658
326 659
326 660
326 661
326 662
326 663
326 664
326 665
326 666
326 667
326 668
326 669
326 670
326 671
326 672
326 673
326 674
326 675
326 676
326 677
326 678
327 655
328 655
329 655
330 655
331 655
332 655
333 655
334 655
335 655
336 655
337 655
338 655
339 655
340 655
341 655
342 655
343 655
344 655
345 655
346 655
347 655
348 655
349 655
350 655
351 655